mixintcount/benchmarks/random_v2l/4_4_63.smt2
(set-logic QF_LIA)
(set-info :ran/ran2.smt2)
(set-info :smt-lib-version 2.0)
(declare-fun x1 () Int)
(declare-fun x2 () Int)
(declare-fun x3 () Int)
(declare-fun x4 () Int)
(assert (<= (+ (* (- 3) x1) (* 1 x2) (* 8 x3) (* 10 x4) ) 22))
(assert (<= (+ (* (- 2) x1) (* 7 x2) (* (- 2) x3) (* 0 x4) ) (- 21)))
(assert (<= (+ (* 0 x1) (* 5 x2) (* 7 x3) (* 2 x4) ) 20))
(assert (<= (+ (* (- 2) x1) (* 1 x2) (* 0 x3) (* 7 x4) ) (- 60)))
(assert (<= (+ (* (- 1) x1) (* 8 x2) (* (- 3) x3) (* 8 x4) ) 11))
(assert (<= (+ (* (- 9) x1) (* (- 8) x2) (* (- 4) x3) (* (- 2) x4) ) 4))
(assert (<= (+ (* (- 6) x1) (* 5 x2) (* 0 x3) (* (- 9) x4) ) (- 30)))
(assert (<= (+ (* 0 x1) (* (- 1) x2) (* (- 1) x3) (* 8 x4) ) (- 49)))
(assert (<= (+ (* 1 x1) (* 0 x2) (* 0 x3) (* 0 x4) ) 63))
(assert (<= (+ (* (- 1) x1) (* 0 x2) (* 0 x3) (* 0 x4) ) 63))
(assert (<= (+ (* 0 x1) (* 1 x2) (* 0 x3) (* 0 x4) ) 63))
(assert (<= (+ (* 0 x1) (* (- 1) x2) (* 0 x3) (* 0 x4) ) 63))
(assert (<= (+ (* 0 x1) (* 0 x2) (* 1 x3) (* 0 x4) ) 63))
(assert (<= (+ (* 0 x1) (* 0 x2) (* (- 1) x3) (* 0 x4) ) 63))
(assert (<= (+ (* 0 x1) (* 0 x2) (* 0 x3) (* 1 x4) ) 63))
(assert (<= (+ (* 0 x1) (* 0 x2) (* 0 x3) (* (- 1) x4) ) 63))
