mixintcount/benchmarks/random_v2l/4_4_63.in
16 6
#	x1	x2	x3	x4;		0 = Real; 1 = Integer
	1	1	1	1
1	-3	1	8	10	22
1	-2	7	-2	0	-21
1	0	5	7	2	20
1	-2	1	0	7	-60
1	-1	8	-3	8	11
1	-9	-8	-4	-2	4
1	-6	5	0	-9	-30
1	0	-1	-1	8	-49
1	1	0	0	0	63
1	-1	0	0	0	63
1	0	1	0	0	63
1	0	-1	0	0	63
1	0	0	1	0	63
1	0	0	-1	0	63
1	0	0	0	1	63
1	0	0	0	-1	63
